-9 0
9 15 -40 24 -38 9 0
1 40 9 -41 -38 28 9 0
9 -41 -40 24 -38 9 0
1 9 -46 -41 -38 28 9 0
-29 15 -13 -41 -40 9 0
-29 38 -18 -41 24 9 0
40 9 36 15 9 0
38 9 -46 -41 24 28 9 0
-46 27 -18 31 9 0
38 -18 -46 -13 -41 31 9 0
1 38 6 -13 -41 9 0
9 0
0
